Cs2 In1 Ag1 Cl6                         
   1.00000000000000     
     7.5494135265548898   -0.0000000000000000    0.0000000000000000
     3.7747067632774449    6.5379838976983562   -0.0000000000000130
     3.7747067632774449    2.1793279659327607    6.1640703324468031
   Cs   In   Ag   Cl
     2     1     1     6
Direct
  0.7500000109999974  0.7499999930000030  0.7499999859999988
  0.2500000069999970  0.2499999830000021  0.2500000020000002
 -0.0000000000000000 -0.0000000000000000 -0.0000000000000000
  0.5000000149999977  0.4999999670000008  0.5000000040000003
  0.7588524657498027  0.2411475882501947  0.2411476062501962
  0.2411476512501964  0.2411475972501990  0.7588524007498009
  0.2411476092502000  0.7588523807497992  0.7588524007498009
  0.2411476612501972  0.7588523727498057  0.2411476062501962
  0.7588524767498001  0.2411475972501990  0.7588524007498009
  0.7588524867498009  0.7588523727498057  0.2411476062501962
 
  0.00000000E+00  0.00000000E+00  0.00000000E+00
  0.00000000E+00  0.00000000E+00  0.00000000E+00
  0.00000000E+00  0.00000000E+00  0.00000000E+00
  0.00000000E+00  0.00000000E+00  0.00000000E+00
  0.00000000E+00  0.00000000E+00  0.00000000E+00
  0.00000000E+00  0.00000000E+00  0.00000000E+00
  0.00000000E+00  0.00000000E+00  0.00000000E+00
  0.00000000E+00  0.00000000E+00  0.00000000E+00
  0.00000000E+00  0.00000000E+00  0.00000000E+00
  0.00000000E+00  0.00000000E+00  0.00000000E+00
