POSCAR file written by OVITO Basic 3.5.3
1
22.4358997345 0.0 0.0
0.0 21.5890007019 0.0
0.0 0.0 51.6110992432
Te Sb 
270 540 
Direct
1.1190005436e-04 0.3994208285 -6.0128392642e-04
0.502711257 0.2954813812 -4.4476768828e-04
0.334225807 0.6002372422 -0.0037180376
0.8336309208 0.1046792431 0.0012621284
0.8303026426 0.5053711063 0.0025869391
-0.0048371845 0.001628005 -7.0083083737e-04
-0.0035088424 0.6017873763 0.0013916545
0.4999718691 0.7007158832 -0.0038451366
0.6656573231 0.002915755 -0.0014798099
0.1680790333 0.2985412647 0.0012166477
0.3899233215 0.2974623206 0.0355030929
0.0602216105 0.8967365244 0.0347115571
0.3856388201 0.0986878933 0.0389372586
0.0586315376 0.0991283275 0.0354029993
0.553468556 0.0037450038 0.0364238051
0.2243632705 0.7975339621 0.031985426
0.725768474 0.8951680715 0.0360099413
0.3833300227 0.7029852373 0.0376481657
0.0521856237 0.7021141007 0.0372935489
0.5584823255 0.8034036487 0.0345579956
0.7754387082 0.0034114607 0.0725360034
0.4417362966 0.8037416476 0.0753080097
0.942104734 0.1034321634 0.074986057
0.1090340523 0.7993154908 0.0734014646
0.6143695162 0.703233886 0.0743058087
0.9409802274 0.905071779 0.0733494579
0.2760447435 0.2974869536 0.0737707226
0.6099041594 0.902280088 0.0782533225
0.4460065197 0.5949705787 0.0742475799
0.2809099912 0.5017255295 0.0712180214
0.5003737105 0.7004786764 0.1154080157
0.3378226188 0.4015917049 0.1081462302
0.8291275567 0.101319178 0.1147594063
0.6686043894 0.3955087284 0.1114020068
0.164588458 0.7043780858 0.1128144066
0.167243106 0.9019403185 0.1103298822
0.1618698486 0.5043330243 0.1107300406
0.8322139367 0.2971194698 0.1138264922
0.6646531173 0.5965228045 0.1134458239
0.501917809 0.2974241737 0.1078887016
0.0568813674 0.3037227616 0.1451826407
0.3945085587 0.3019276245 0.1478773875
0.7224206993 0.9033386433 0.146155537
0.3860831982 0.9040194417 0.1467067134
0.3901989244 0.1031181119 0.145628494
0.5536489571 0.4036699631 0.1510400835
0.2207847438 0.0043263839 0.1468418651
0.5574865131 0.1987876406 0.1484950661
0.2231038993 0.4013762356 0.1478241956
0.3887237352 0.5031582258 0.1495848641
0.9415435141 0.4965752216 0.1846196457
0.2765544525 0.0995024151 0.1830196145
0.1059335482 0.5996429649 0.1809507628
0.1093721445 -0.0051620234 0.1851516173
0.6076239474 0.1001975888 0.187871785
0.9405807044 0.2992315796 0.1882993955
0.9390713594 0.6974160332 0.1818938673
0.9411839499 0.0979298917 0.186212143
0.2726784594 0.2995249283 0.1814861373
0.6078999565 0.6975444742 0.1855828559
-2.7936888086e-04 0.5976031423 0.2252042149
-0.0010031302 -0.0046571577 0.2250679446
0.1628039712 0.1064138129 0.2229821922
0.3326796405 0.4027450253 0.2226632988
0.500670371 0.5007132527 0.220701932
-0.0020174959 0.7987230657 0.2196914537
0.3355532042 0.2022485872 0.2211215389
0.1671343677 0.4965990267 0.2213873955
0.1666984949 0.7019541085 0.218944833
0.8329508955 0.9058885923 0.2203428468
0.8857316114 0.4030524501 0.2579851061
0.5570675769 0.6042574368 0.2624967559
0.3853604251 0.6947696727 0.2565021553
0.722759334 0.4997953728 0.2571089888
0.8844896734 0.2035071318 0.2598327291
0.0553191802 0.9012942249 0.2608295205
0.8901569951 0.5990384235 0.2583402223
0.0560950006 0.2989682497 0.2560487676
0.0551351299 0.6946551408 0.262035735
0.8863378749 0.7933233528 0.2559979362
0.7732319392 0.6049357037 0.2953642055
0.9430331025 0.2977386313 0.2986407488
0.4443180449 0.8030046878 0.2939664934
0.1161095748 0.4032953907 0.2958837872
0.1149219861 0.7968636796 0.2984942317
0.9423358131 0.8977017951 0.2981818454
0.9471433031 0.0942407699 0.2975732249
0.4422774681 9.6620223363e-04 0.292186923
0.2784164467 0.3013100211 0.2945888676
0.7707357168 0.8006363559 0.2935439564
0.8296408891 0.4993227593 0.3362970488
0.499858585 0.0990249828 0.3368071047
0.8324750991 0.6971008646 0.3342090838
0.8308222781 0.0964448068 0.3340125639
-0.0055644022 0.4008848989 0.3332817288
0.6701031019 0.4038526126 0.3308712114
0.1671230756 0.1057446858 0.3316870281
0.8319577183 0.9003799592 0.3348711251
0.5001266961 0.7051179732 0.3322426415
0.3340846409 0.6044005537 0.3331103996
0.2271591824 -0.0045522221 0.3694560002
0.7172116153 0.0981594889 0.3695092895
0.0522778057 0.096359949 0.3689578912
0.8937483626 0.7940202694 0.3714184635
0.0623161815 0.8972302258 0.3696967259
0.3894810566 0.4921523974 0.3712521276
0.0612811468 0.4979516649 0.3725161077
0.0608044553 0.2953616065 0.3702100155
0.5543174942 0.5958135948 0.3680280794
0.553041788 0.3951983726 0.3702531132
0.4450016082 0.1955386793 0.4088065933
0.7746696434 0.5967472528 0.408636993
0.2803483199 0.0992791792 0.4107457969
0.4416764051 0.5986354505 0.4123129116
0.2800087504 0.6997228335 0.4047996037
0.9431451022 0.097948704 0.4059396489
0.1121265756 0.1959250321 0.4094687482
0.2779324868 0.8997018816 0.4090295475
0.1135862789 -0.0019340516 0.4114484718
0.9468159697 0.9030910584 0.4078304399
0.8369803431 0.4975285362 0.4443671749
-4.467185412e-04 0.2014199987 0.4446658596
0.8251087249 0.9012238869 0.4442556773
0.173105165 0.3015322951 0.4453391496
0.3370606322 0.8016745371 0.4454417646
0.5048828501 0.3012121418 0.4446252103
0.8323586262 0.0979962797 0.44298361
0.8320078629 0.2995011501 0.438287893
0.6677749279 0.1977079155 0.4404511655
0.1641873981 0.698926553 0.4451893192
0.3924198893 0.0949028701 0.4808479781
0.8883280963 0.4035858958 0.4813913948
0.217588419 0.7995898796 0.4829744215
0.0569256617 0.0963695773 0.4823039081
0.8900873571 0.1981378221 0.481309422
0.7189788524 0.4970658546 0.4835861044
0.5590659412 0.1988780185 0.4839749069
0.0538797938 0.3020346516 0.4825168527
0.7225578445 0.3003730724 0.4845027733
0.725144433 0.0994604403 0.4835132792
0.772720766 -0.0037421325 0.5188204335
0.2769977198 0.8975837079 0.5206274347
0.2832482689 0.6946133998 0.5195227158
0.2728469939 0.1006201716 0.5194494033
0.4474532498 0.4039927562 0.5155487089
0.6062709267 0.8997447523 0.5161315016
0.2855938755 0.3022671981 0.5174131125
0.443434536 0.2001538553 0.5224108682
0.6082589556 0.0964375848 0.5212252165
0.947502493 0.297120544 0.5203847543
0.6706833289 0.5967130261 0.5572420434
0.8342871681 0.902121478 0.5555078296
0.1625299054 0.2977239014 0.5528392699
0.8358846684 0.301352402 0.5548355492
-0.0018312414 0.5940374472 0.5563922125
8.8303634953e-05 -5.6562845908e-04 0.5521036715
0.6690696901 0.7978717446 0.5585611923
0.1602843832 0.698755262 0.5550848274
0.0017562094 0.4022353187 0.5580990515
0.5016482418 0.3015290327 0.5569820167
0.8932743307 0.796563344 0.5923224937
0.3835788391 0.0989510374 0.5903131683
0.2303953666 0.4056496475 0.5891624126
0.2175002838 0.195805473 0.5926228391
0.0569416947 0.8973703506 0.5934032377
0.0551047028 0.0995404807 0.5941198618
0.5530494419 -0.0038026352 0.593105035
0.3927686327 0.701076806 0.5931219037
0.5543645293 0.4015808701 0.591739219
0.714086967 0.3005707396 0.5912039172
0.1141584283 0.4036987344 0.6308144487
0.7772982881 0.7995347198 0.6300053246
0.2836125458 0.2979848713 0.6314251107
0.7829983187 0.4018277741 0.630079338
0.2721466135 0.098541584 0.6288280769
0.4452011822 0.2028386147 0.6278410019
0.7837229238 0.198114558 0.6311469182
0.609988008 0.7006577238 0.6302939025
0.6121195319 0.5029430813 0.6312156812
0.441824531 -0.0041610283 0.6311649394
0.3376824053 0.6006389399 0.6624716819
0.3395318832 0.4025932068 0.6662982011
0.5021845945 0.0997995146 0.6702247019
5.8750603969e-04 -0.0014012854 0.6632252831
0.6667792689 -0.0045872733 0.6667798374
0.1634555693 0.0964404609 0.6651050795
0.3298500238 0.8005856111 0.6655873658
0.3316499941 1.5179133788e-04 0.6682220978
0.5025514139 0.3008384009 0.6694212804
0.1693603045 0.9000240511 0.6648455404
0.0560847854 0.8981722509 0.7058963307
0.7222178555 0.1010706589 0.7020413811
0.3938448346 0.7065388671 0.7060021891
0.8838769836 -0.0014438906 0.7040662398
0.223350348 0.6019399575 0.7041255441
0.5584460006 0.5960233043 0.7012402903
0.2255177409 0.400563245 0.7045727874
0.2253020319 0.2041185987 0.7020215034
0.3915906586 0.4998882011 0.7026538586
0.893058206 0.3987689897 0.7006700518
0.4461009363 0.3999133203 0.7429767075
0.4486085012 0.5988979512 0.7429694235
0.6136811229 0.7050170606 0.7401299955
0.4427736642 0.2003329885 0.739046102
0.1047221045 0.396390488 0.7373460849
0.7752141791 0.198535367 0.7365777269
0.6073961141 0.0998366354 0.7430596018
0.2768101494 0.0949973605 0.7403987729
0.956061257 0.5022727324 0.7420409454
0.6127701763 0.9010737456 0.7403644815
0.1641160331 0.2989004367 0.7795211989
0.3360407901 -5.046240792e-04 0.7810201724
0.3278321022 0.202050878 0.7804555133
0.6667135704 0.593077825 0.7777872985
-0.0048247354 -4.9949918706e-04 0.7770662774
0.8357012447 0.3012303113 0.7735252165
0.1728900436 0.5004618976 0.7772953612
0.8284641616 0.5019873554 0.7756985858
0.8299056955 0.0964474197 0.7785568979
0.3341329495 0.5970153921 0.7777929454
0.8888335573 0.7947044821 0.8141095595
0.0612329048 0.5003855215 0.8166455053
0.5550635862 0.3969428434 0.8131537114
0.7191428143 0.2960110668 0.8161686834
0.3934227395 0.7091169771 0.8134031002
0.3884989767 0.3066283207 0.8155479604
0.8872731783 0.3997892896 0.8136882396
0.7209740729 0.7039342708 0.8135149073
0.8877011468 0.1969001694 0.8177387092
0.7211138852 0.9006429268 0.8131860761
0.1085203164 -0.0010333919 0.8485608646
0.7802240748 0.5980961815 0.8533003371
0.9382069834 0.4989985244 0.8489348467
0.9458706971 0.2956233702 0.8534331175
0.2737811605 0.7010583613 0.8497499537
0.9446542094 0.9068804142 0.8524097207
0.4480909235 0.5952836387 0.8499500784
0.6175532599 0.5033344592 0.8541343407
0.4416631477 0.1981335147 0.8533206049
0.2748500045 0.8975918894 0.8504874822
0.1731828512 0.099986802 0.88975953
0.5009476911 0.7058406956 0.8867843951
0.3370013982 0.4027278829 0.8858173547
0.0036763185 0.601513925 0.8872020067
0.0024467854 0.797769754 0.890679624
0.5068005258 0.3056607642 0.8908511741
0.3355758049 -0.0030031668 0.8872538238
0.3346445471 0.6028461281 0.8928073034
0.167107186 0.6999921895 0.8906706598
0.0016186957 0.3991671153 0.8912391891
0.3831102942 0.2959434308 0.9275432325
0.7216521619 0.1034481799 0.9255233898
0.8899454588 0.2025724107 0.927946044
0.7262890682 0.504258909 0.9260098839
0.3905775771 0.1034693569 0.9241627334
0.2163344701 0.4006006584 0.9253485946
0.5581280754 0.0053521104 0.9245690032
0.0529389895 0.102001703 0.9287106559
0.5556830566 0.5996140566 0.9245238818
0.8884353401 0.6024900849 0.9287814699
0.1101561767 0.7998135416 0.9618006178
0.112010352 0.6005242623 0.9610352822
0.6124179125 0.495721834 0.966400972
0.4435628866 0.0022511181 0.9668810861
0.2764453488 0.1020040965 0.9642873369
0.7766580708 -0.0035690576 0.962370659
0.442490083 0.4043673836 0.9629001795
0.9445994159 0.4973036934 0.9610338074
0.9419999846 0.8984257443 0.9619794421
0.7805771312 0.3941561457 0.9630738991
0.8316888608 0.9014576456 5.971702202e-04
0.6648915134 0.8018056309 -0.002924844
0.3316779956 0.2008544822 -0.0016834031
0.6676360139 0.2013154402 -0.0015732484
0.1684315037 0.6991521438 -3.9134856642e-04
0.3319778352 0.4020364382 -0.0012057536
-0.0036570742 0.8015142045 -4.8965264198e-04
0.3325913831 -0.003645829 -4.5622067821e-04
0.8325704027 0.7050798054 -2.6029765297e-05
0.6674152774 0.6065077948 0.0013807468
0.8327980177 0.3005487066 1.5605881328e-04
0.500551903 0.8980163303 -6.0908469808e-04
0.663505533 0.4006469467 0.0014810677
0.5012512799 0.5040854444 2.674866628e-04
0.1658552208 0.0991156899 8.5178429339e-04
0.1679918662 0.9058213502 3.0369955939e-04
0.1685712211 0.4994731154 0.0011347218
-8.5607619161e-04 0.2025798562 2.6783134253e-06
0.3343742363 0.8008446792 -0.0012794887
0.5016503462 0.1016490288 3.0229976166e-04
0.890955051 0.1991524313 0.0371800112
0.7178127977 0.1025318038 0.0393226957
0.0504966703 0.2999857677 0.0390410587
0.8879244267 0.3996853976 0.0392705662
0.2189539388 -0.0018595918 0.0374442227
0.5596457624 0.3992989313 0.0377852878
0.3874362391 0.9014659968 0.0367893862
0.2189993104 0.1983203041 0.0375267254
0.216455534 0.6006821533 0.0364985287
0.3910400212 0.4972289851 0.0369760628
0.7273765396 0.2978619982 0.0380222199
0.5586211118 0.5967355326 0.036487406
0.886816894 -0.0010900147 0.036396524
0.556188262 0.1991259358 0.038433033
0.8891674508 0.7992390332 0.0363037031
0.8864343846 0.6030933987 0.0390144298
0.2191611137 0.4031613288 0.0357163158
0.7243239181 0.4982461969 0.0381894526
0.0548223262 0.5031007229 0.0392935681
0.7235489696 0.6983546192 0.038033531
0.1120951794 0.6002706475 0.0720788784
0.9434501734 0.3035949037 0.0729643802
0.7755965601 0.2001196907 0.0722345211
0.9432842419 0.5027320179 0.0721854236
0.1103794602 0.4005333865 0.0717355001
0.6122887008 0.1034805116 0.0747821959
0.6119033938 0.3006273347 0.0718517822
0.4441641374 0.4019080913 0.0732851249
0.7768714379 0.8032564696 0.0735932079
0.6074560494 0.5004856074 0.0720439649
0.7758573933 0.6036164593 0.0727631038
0.1115017387 0.2027385416 0.0730190857
0.4479420498 0.2004837421 0.0733163247
0.2804813822 0.6994512903 0.0742893361
0.9412323298 0.7049317552 0.0735942466
0.44382777 9.1902259738e-04 0.074271182
0.7768008451 0.4014052382 0.072344327
0.277734154 0.1036139313 0.0751211929
0.2804240039 0.9026453681 0.0734460878
0.1116703388 6.8900361834e-04 0.0739106919
-0.0037017981 0.4003230101 0.1097639851
-0.0031194546 0.6017490444 0.1115145628
-0.0018955383 0.0016928847 0.1139919047
0.5008539431 0.4992975777 0.1088567815
0.331643811 0.6063577431 0.1110243201
0.3307433894 0.198760383 0.1103190809
0.8301075575 0.698877586 0.111252543
0.8320458583 0.4963306166 0.1117985579
-0.0040189971 0.1977153367 0.1125328218
0.3311118471 0.799661296 0.1095132431
0.4993601538 0.9009736936 0.1127356701
0.8331152925 0.9000499545 0.1108232996
0.1605853406 0.1006170186 0.1094911336
-0.0034554236 0.8009667575 0.1117582759
0.1656123832 0.29881619 0.1089280136
0.4983297218 0.0990440096 0.1113122246
0.6673159467 0.7989914222 0.1112595547
0.6698584811 0.198715732 0.1103728925
0.3302938332 -8.1966464981e-04 0.1082267267
0.6611939335 0.0024249498 0.1135663915
0.0528335576 0.9005437923 0.1471628314
0.3871305483 0.7011781587 0.1472395684
0.0510347252 0.7024699665 0.1460146192
0.7244014191 0.5005657458 0.1482238343
0.054256566 0.5042587419 0.1449531616
0.7213591532 0.1042369698 0.1477579383
0.7204748812 0.3003029466 0.1489563163
0.2228788417 0.8019169893 0.1490315347
0.888128935 -0.0036080181 0.1479890908
0.221257479 0.2017453861 0.1453536201
0.889175442 0.4025917853 0.1453507137
0.0544239875 0.1026819651 0.1451373877
0.5534632231 0.0018854151 0.1474734253
0.8872958421 0.6022248294 0.1440611866
0.225328669 0.6004400699 0.1479586403
0.5552486417 0.8054966882 0.148446582
0.5545073375 0.5977152988 0.1476836119
0.8892470302 0.199344927 0.1483657313
0.8871265976 0.8033396246 0.1460294713
0.7254120076 0.7030102811 0.1483065493
0.6131078402 0.2971226965 0.1873784937
0.774775732 0.1994696793 0.1871687026
0.4462932195 0.8017671284 0.1862669733
0.109169684 0.2023576228 0.1868755762
0.7744875325 0.7971121333 0.1849259824
0.7757150412 0.3985083801 0.1856607565
0.2761620275 0.7003935258 0.1851172524
0.7726451359 0.5971949031 0.184409229
0.1123696683 0.8003944608 0.1843307539
0.6118237639 0.497823886 0.1860461433
0.4399554331 0.6020935266 0.1854052914
0.7769132749 0.0040323599 0.1870222465
0.4466158861 0.3989126188 0.1858466825
0.2753014428 0.8999490828 0.187213423
0.2760584246 0.5009176992 0.1835560513
0.4422319849 9.078698255e-04 0.1881520772
0.1092588951 0.4012443499 0.1867094482
0.9448628209 0.8972480117 0.1827565108
0.6078432025 0.90320752 0.1869326597
0.4466560127 0.2024722142 0.1871451101
0.6668362178 0.8049750432 0.2208999508
0.3320968963 0.6011941724 0.220187194
0.4991268069 0.9034211663 0.219740558
0.0013226575 0.199180733 0.2226570197
0.6696548128 0.2037151841 0.2219399266
0.3317951699 6.7289106618e-04 0.2207846383
0.6690962095 0.6004053168 0.2204011294
0.0011531209 0.4036048324 0.2217894761
0.3306256642 0.8029439394 0.2203127835
0.4975915882 0.7042905975 0.2205438348
0.8335272075 0.0991417434 0.221944819
0.6678032773 0.0028926529 0.2217347303
0.4998266335 0.3015154034 0.2210936547
0.8313052886 0.5006727119 0.22056881
0.668932405 0.3992517613 0.2194800219
0.8317673644 0.3009958295 0.2212045508
0.16635986 0.8971625782 0.2199564672
0.1639770909 0.3019857072 0.219102285
0.8297781211 0.7029620003 0.2200552811
0.4942978437 0.1002450717 0.2217186845
0.3931363911 0.2996538379 0.259215668
0.8851644685 -0.0014476508 0.2592114083
0.5572108137 5.4178579924e-05 0.2605326656
0.7200330848 0.2996565065 0.261762643
0.0526580054 0.4992692887 0.2617776095
0.3867830718 0.1035226185 0.2590032899
0.2206817252 0.1991512818 0.2607201509
0.7210693498 0.0974375881 0.261512805
0.2210943368 -2.0098645416e-04 0.261454838
0.3887111845 0.5006095369 0.2608677539
0.3845971212 0.9006292268 0.2576727819
0.7198483233 0.6997653725 0.2572527018
0.2223134141 0.403470893 0.2594612271
0.5539233546 0.7985712939 0.2585682195
0.7167043328 0.899557172 0.2595341809
0.554851308 0.4022503906 0.2617309343
0.0573296676 0.1029787808 0.2610933574
0.2227792385 0.6008377206 0.2633482614
0.5542999092 0.199433698 0.2613447219
0.2265115037 0.8011870793 0.2590878565
0.2777497808 0.9017503932 0.2925031399
0.7771964569 0.3995352046 0.2961261519
0.6094226014 0.901817719 0.2936129492
0.6121499967 0.1016478408 0.2938933343
0.6087990147 0.5007186878 0.2967636726
0.2763767124 0.7004583353 0.2955823679
0.9463324382 0.500644478 0.2973822264
0.9457397165 0.6977284017 0.2989445278
0.7749720485 3.3427489765e-04 0.295851203
0.4448619856 0.2016282292 0.2930840098
0.4447369036 0.4010706582 0.2929748917
0.1128690938 0.199747546 0.2958363688
0.2770244564 0.5008649117 0.2938601984
0.1110659109 -9.7296193048e-04 0.2957407242
0.6090686984 0.2982931783 0.293845774
0.7754739741 0.2027250573 0.2954242082
0.1135161032 0.5986032483 0.2960796634
0.2757241518 0.1000451968 0.2927385754
0.443631303 0.5973058281 0.2969694812
0.6114799783 0.704940013 0.2932500783
0.1679006234 0.9002439857 0.3339350778
0.6665360316 0.8005363351 0.3366296347
0.6652482781 0.603035249 0.3348412963
0.8318030047 0.2994750708 0.3330865425
7.5528002891e-05 0.2000790335 0.3345074044
0.6630729344 0.2030521044 0.3330954402
0.6626964669 -0.0071447933 0.332578235
0.4991536838 0.8992533092 0.3351585862
0.0010372797 0.7966483226 0.3339089537
0.3342495672 0.1978003617 0.3365811521
0.3350049586 -0.0016214024 0.3355891436
-0.0041571244 0.5998422965 0.3337410066
0.3331654261 0.8014150018 0.3364269581
0.4992197522 0.2968099077 0.3356572958
0.1724285171 0.4976254364 0.3348121203
0.1732201612 0.2989469546 0.3354955984
0.5000513018 0.500432409 0.3308171663
-0.0012165868 -3.4457737543e-04 0.333392041
0.1691316649 0.6966234971 0.3358950481
0.3341272734 0.3982082836 0.3371328216
0.8890631733 0.4000710007 0.3710864658
0.2240215685 0.3989844129 0.3690913442
0.2228180534 0.7988513546 0.3680709604
0.3877913988 0.2973754684 0.3678748792
0.718009243 0.9021620686 0.3693076595
0.716543138 0.7028448397 0.3701813787
0.8880970478 -0.003356088 0.3703803735
0.0592093918 0.6986019142 0.3714162793
0.5516392429 0.8022631985 0.3683589758
0.3897814484 0.9012024911 0.3674870557
0.2220561767 0.5964913194 0.3722126593
0.2257412535 0.2024776323 0.3695827753
0.7222465703 0.297905664 0.3698569136
0.3866689706 0.0999726242 0.369647236
0.5532214323 -0.0021944911 0.3694125878
0.8916770322 0.6009306719 0.3702315709
0.3874560269 0.7045692308 0.3694608709
0.890081894 0.2021317425 0.368670279
0.7181473806 0.5027153663 0.3690211067
0.5560303353 0.2006877839 0.3688388141
0.9454622223 0.4991523428 0.4076249351
0.2786482108 0.5006145316 0.4103222338
0.9441269411 0.2991363257 0.4061544456
0.282161632 0.2992588876 0.4099423799
0.6090619866 0.5005434816 0.4099631148
0.6117681658 0.6989286886 0.4089510899
0.9436314402 0.6986500715 0.4088082037
0.7756284677 0.3983057031 0.4058681053
0.7752383452 0.2008513255 0.4041875991
0.7753244015 0.7971946233 0.4099412529
0.6141893989 0.3018856588 0.4061842171
0.1114755213 0.6008611279 0.4075658441
0.6135253174 0.8983493369 0.4089878585
0.4468905172 -0.0017652892 0.4099994294
0.6116354653 0.0962955544 0.4087230499
0.7764941874 1.7914380816e-04 0.4078916036
0.1114732902 0.4025964024 0.4096778393
0.4452632694 0.3993650689 0.4095675063
0.1095663968 0.7957284097 0.4084261239
0.4466043953 0.798123294 0.4093804809
6.766820221e-04 0.3999522799 0.4422970156
0.0019302105 0.5976731578 0.4446175537
-0.0022300671 -0.0028485763 0.4455886538
0.3379556279 0.3978549767 0.4449270055
0.1649445755 0.900247003 0.4460876975
0.0027390841 0.7981070135 0.4441947317
0.6648760061 0.7979247647 0.4418301698
0.6629954615 -0.0021353657 0.4424520143
0.3311012222 0.5985964538 0.4449408901
0.6665838861 0.400720974 0.4422660608
0.1667364425 0.0994526227 0.4475006359
0.8344610331 0.703471636 0.443853653
0.4982755832 0.9022424664 0.4440111225
0.3342762619 -5.4521695388e-04 0.4458222485
0.4988751972 0.7021527909 0.4434933518
0.4994212009 0.4953683694 0.4437802074
0.3311682294 0.2015084189 0.4461078108
0.4988908666 0.097739223 0.4430123315
0.6627802708 0.6001721805 0.4418211003
0.1706646947 0.4985775289 0.4445134988
0.0540459109 0.8986747303 0.4809574185
0.3899863757 0.3006188808 0.4813653107
0.0516049423 0.7002694099 0.4811004332
0.3922074582 0.6996021552 0.4831341509
0.8877665425 0.7952678703 0.483083656
0.5610653827 0.3981013363 0.4810989587
0.5530404051 0.7950756445 0.4838971557
0.5572473555 0.600645563 0.484969649
0.3875133812 0.5038915454 0.4825134607
0.8907913109 0.5991407077 0.4828115876
0.7222843758 0.89676743 0.4817367833
0.0526503369 0.4991790853 0.4814273123
0.5546487521 -0.0039137021 0.4814540781
0.3939671108 0.8994175909 0.4817363321
0.7232171726 0.6989095337 0.4838621067
0.2214538316 -0.0032310981 0.4807023107
0.8917666128 9.5924657588e-05 0.4831849454
0.2204835544 0.5965431307 0.4837635212
0.2207709243 0.4031303833 0.4811110019
0.2233967738 0.1981507167 0.4822425804
0.1156682857 0.4023099183 0.5170108059
0.4457542395 -0.0025017851 0.5198479957
0.6088839427 0.4988445741 0.5166398677
0.7765554768 0.1964448798 0.5205149133
0.7766275789 0.3989086232 0.5197226986
0.2807641235 0.5009032631 0.5188844844
0.9453207399 0.5004854145 0.5161019845
0.7759459321 0.7989815899 0.5151544719
0.943881335 0.7032603617 0.517375191
0.7815535208 0.6032463083 0.5168613898
0.613519947 0.2994708681 0.5183300042
0.4436862235 0.7995346058 0.5172476157
0.6102511456 0.7005345097 0.5167814863
0.4469304363 0.600017866 0.5179450046
0.9429909847 0.9009204802 0.5171332543
0.1113244678 0.2000170629 0.5203553896
0.9387059328 0.0974465194 0.5194307961
0.112256311 -0.0030394057 0.5178749571
0.1108348085 0.5968679927 0.5166191146
0.1084287672 0.7980846737 0.517076981
0.165024114 0.8977209348 0.5555048915
0.00154679 0.2012170171 0.5567140343
0.3342877442 0.2002335274 0.5558832189
0.4999693359 0.0985961412 0.5563170173
0.1648111217 0.5009382406 0.5539265116
0.3343376387 -0.0038743801 0.5568964661
0.1651689435 0.0981559388 0.5547326011
0.6683868159 0.1981966998 0.5561263794
0.3326320852 0.7999070487 0.5577433203
0.5005185018 0.5037478067 0.5558524684
0.8321053206 0.6945305737 0.5557210452
0.496526006 0.8976912356 0.5570087036
0.6701190668 0.4009151246 0.5559128654
0.335779142 0.4026570426 0.5553152245
-0.0015298057 0.7949682617 0.5557931623
0.8357871885 0.1004670899 0.556946309
0.3311043612 0.5982262556 0.5560557268
0.8345581524 0.49789457 0.5583546496
0.5032984198 0.6994726487 0.5559503938
0.6662249307 -0.0016955524 0.558391791
0.888847993 0.1961566809 0.5919351072
0.0575429724 0.4996058516 0.5915804355
0.2250596634 0.5993721725 0.5915787696
0.7272310752 0.4994469358 0.5927813336
0.0534214504 0.2960164617 0.5927799212
0.7263253207 0.6989359536 0.5918476488
0.5564251185 0.6012664794 0.589907423
0.2242316777 0.8002294172 0.592370193
0.3890108814 0.8997807075 0.5916149976
0.8851081672 0.6002863677 0.5914051412
0.7204398163 0.9012573976 0.5955332737
0.7180165687 0.0953440407 0.5926432194
0.5535430123 0.7999518309 0.5933948513
0.8860530068 -0.0014762021 0.5936366552
0.0538219193 0.7017106719 0.5927785232
0.8893182333 0.403735277 0.5935820221
0.5573549106 0.198055147 0.5942959665
0.3944978186 0.4986265973 0.5930547558
0.3889176302 0.2991307836 0.5935137016
0.2207580835 -0.0046124697 0.5904134242
0.2738305841 0.8964235028 0.6281001809
0.9424217105 0.8985042199 0.6312754692
0.4486047976 0.5962212486 0.629788808
0.7803393047 0.6000145822 0.6300296062
0.2786983511 0.5033108589 0.6269972247
0.1089355199 0.2022261306 0.6304427188
0.9473092252 0.49958941 0.6309314636
0.4465044213 0.7998409843 0.630560691
0.1120011861 -0.0027476044 0.6290606556
0.9496152031 0.297320645 0.6301660851
0.7816609786 -1.8255258103e-04 0.6281517887
0.1115406206 0.6008350957 0.6319274116
0.4451050033 0.4014946136 0.6279813985
0.6115809439 0.2995723093 0.6296534478
0.6113749775 0.8959180667 0.6302829789
0.6136912157 0.1019592317 0.6287868774
0.9423691053 0.0999669273 0.6290635039
0.1082622782 0.7949260739 0.6287221054
0.946068744 0.6994923713 0.6314780959
0.2727755063 0.6978003471 0.6280145824
0.3348696755 0.2024613931 0.6679650094
-0.0036538342 0.1978762942 0.664704225
0.1705432384 0.5017834309 0.6649716131
0.8363655221 0.5039030822 0.6660559203
0.166872412 0.6987843835 0.6644388257
0.834657271 0.1004329299 0.6675427416
0.8356626828 0.6973754527 0.6685042099
0.0027544563 0.5999607621 0.6650365888
6.1765286723e-04 0.3994957391 0.6641290096
0.8347423439 0.9004107278 0.6681290286
0.8356118434 0.2982714935 0.6685127222
0.0013099669 0.7978697633 0.6645641351
0.5025273953 0.49844984 0.6670196903
0.4985315451 0.8998240896 0.667648959
0.6653841254 0.4003921046 0.6679945395
0.4993354615 0.7028911218 0.6664568482
0.1648526291 0.2972996705 0.6679206221
0.6707869461 0.6006062953 0.6676531742
0.6661476778 0.8007142853 0.668353617
0.6636747439 0.2008795158 0.664464189
0.385472133 0.2976553968 0.705372179
0.7220331132 0.5000218871 0.7024923612
0.8877722785 0.8010072489 0.7033079323
0.8904022388 0.1974130298 0.702007307
0.7239461838 0.7011223858 0.7027701679
0.060183782 0.5008570808 0.7033032516
0.2212924516 -0.0014041877 0.7059498869
0.5604934102 0.3972354284 0.7033959261
0.5556040428 0.7992534636 0.7022163766
0.7245725489 0.3006657616 0.7016208786
0.5588649518 0.200221389 0.7036459534
0.3881975103 0.0957212838 0.7054589639
0.0564331091 0.7007833953 0.7049766394
0.054780554 0.0995256555 0.7067618893
0.2249757847 0.7990368568 0.7060560512
0.3908658341 0.9010607176 0.7061674106
0.8882459081 0.6013331193 0.7030145689
0.5521518386 -0.0014198866 0.70380247
0.0584630446 0.2953606261 0.7021397666
0.720353678 0.8995054381 0.7036790532
0.4442022431 0.8021643544 0.7407889692
0.9477052092 0.6984761699 0.7415022071
0.7821132165 0.6003814739 0.7383635165
0.6151669771 0.4964071331 0.7415731455
0.2763647358 0.7067239667 0.7434877535
0.2787596342 0.5008780088 0.7423969367
0.2747706931 0.8981461916 0.7386963832
0.1068322651 0.1992392999 0.7401590382
0.9450567826 0.8942034206 0.742245441
0.7825988025 0.8010001831 0.7400300013
0.1135338604 0.6026076972 0.7386413501
0.9456629407 0.3006972979 0.7425659661
0.7780607999 -0.0030257538 0.7420079752
0.7756732514 0.3976633056 0.7387578019
0.1113050941 0.0029199163 0.74063589
0.6118825975 0.2984430964 0.7424361082
0.2790220165 0.3021198011 0.7422049564
0.4457497389 -0.0024432994 0.7388668777
0.9469721061 0.1031861881 0.7417542955
0.1099995399 0.7979603594 0.740345303
0.5051485622 0.3010527104 0.7777184555
0.1666888717 0.900017396 0.7782287161
0.5008725597 0.9016980014 0.7813400673
0.6646016535 0.1998561044 0.7797977591
7.6568196967e-04 0.2004915209 0.775232193
-9.4999109696e-05 0.3978008161 0.7764547375
0.1622300221 0.0995535349 0.7791090378
0.334125079 0.4006288931 0.7772478926
0.5034267085 0.7023729897 0.7802687291
0.5032287906 0.5028119118 0.7789352865
0.0017182728 0.6021369051 0.7767566302
0.6654213511 0.7985107783 0.7783895933
0.6729972348 0.3993117546 0.7748966866
0.5009652075 0.1002885741 0.7814025813
0.1676380587 0.6996832202 0.7771551107
0.8331239218 0.9010096639 0.7757640734
0.0011845791 0.7985487441 0.7759300564
0.8332871459 0.6998246328 0.7755322212
0.3372749564 0.8021169902 0.7776804185
0.6682865124 4.2923134924e-04 0.7804113287
0.5564814274 0.8029179346 0.8137120956
0.8872054952 3.7178522577e-04 0.815792412
0.2266153443 0.4014328715 0.8178073288
0.2204236304 0.8003628869 0.8138732777
0.0571306139 0.1016544989 0.8152842526
0.0575137364 0.7009183378 0.8174056975
0.8933449255 0.6016135522 0.8128807726
0.0592261477 0.3010684303 0.816982345
0.3927569969 0.9041299338 0.8155160714
0.3922143134 0.4987716357 0.8157662475
0.2227245191 0.1989597626 0.8152817242
0.7212112146 0.0973996008 0.8167541006
0.0581573905 0.8966152855 0.8145171253
0.3919779206 0.0992587035 0.81821749
0.5540644131 0.6021603026 0.814685202
0.7227874901 0.4990403009 0.8130603824
0.2233564127 0.6013708772 0.8136107946
0.5574807204 0.1972358249 0.8137501137
0.5555987384 2.6999375657e-04 0.8141997703
0.2202470323 1.0525348215e-04 0.8125883185
0.1062891501 0.2006708817 0.8519457614
0.1112214023 0.8005514981 0.8488645958
0.7763001906 0.2011047929 0.8538064978
0.4459267584 0.4010477928 0.8508055988
0.4464662357 0.0011655703 0.8520901756
0.2732878565 0.2994008092 0.8523500721
0.6110306288 0.9009776814 0.8543579124
0.7780107817 0.4015841318 0.8554705622
0.2777704808 0.5013826864 0.8510371574
0.1151786375 0.3991191483 0.8504977599
0.9425590321 0.0994096945 0.8525470258
0.4459547368 0.8042345904 0.8541389253
0.1113513238 0.5995491903 0.8507304225
0.7798112382 0.0027168538 0.8536225026
0.2762628645 0.1010685552 0.8513611081