cs2agfecl6_band
20
Line-mode
reciprocal
0.500 0.000 0.000   !X
0.500 0.500 0.500   !R
0.500 0.500 0.500   !R
0.500 0.500 0.000   !M
0.500 0.500 0.000   !M
0.000 0.000 0.000   !G
0.000 0.000 0.000   !G
0.500 0.500 0.500   !R
