cs2agfecl6                              
   1.00000000000000     
    10.4008554119495020    0.0000000000000000    0.0000000000000000
     0.0000000000000000   10.4231347006150816    0.0000000000000000
     0.0000000000000000    0.0000000000000000   10.4231347006150816
   Cs   Ag   Fe   Cl
     8     4     4    24
Direct
  0.2500000000000000  0.7500000229999984  0.7500000229999984
  0.7500000229999984  0.2500000000000000  0.2500000000000000
  0.7500000229999984  0.2500000000000000  0.7500000229999984
  0.2500000000000000  0.7500000229999984  0.2500000000000000
  0.7500000229999984  0.7500000229999984  0.2500000000000000
  0.2500000000000000  0.2500000000000000  0.7500000229999984
  0.2500000000000000  0.2500000000000000  0.2500000000000000
  0.7500000229999984  0.7500000229999984  0.7500000229999984
  0.5000000000000000  0.0000000000000000  0.5000000000000000
  0.5000000000000000  0.5000000000000000  0.0000000000000000
  0.0000000000000000  0.5000000000000000  0.5000000000000000
  0.0000000000000000  0.0000000000000000  0.0000000000000000
  0.5000000000000000  0.5000000000000000  0.5000000000000000
  0.5000000000000000  0.0000000000000000  0.0000000000000000
  0.0000000000000000  0.5000000000000000  0.0000000000000000
  0.0000000000000000  0.0000000000000000  0.5000000000000000
  0.5000000000000000  0.7335252211649461  0.5000000000000000
  0.5000000000000000  0.2664747788350539  0.5000000000000000
  0.5000000000000000  0.5000000000000000  0.7335252211649461
  0.5000000000000000  0.5000000000000000  0.2664747788350539
  0.7339230217278256  0.5000000000000000  0.5000000000000000
  0.2660769782721744  0.5000000000000000  0.5000000000000000
  0.5000000000000000  0.2335252671649499  0.0000000000000000
  0.5000000000000000  0.7664747788350539  0.0000000000000000
  0.5000000000000000  0.0000000000000000  0.2335252671649499
  0.5000000000000000  0.0000000000000000  0.7664747788350539
  0.7339230217278256  0.0000000000000000  0.0000000000000000
  0.2660769782721744  0.0000000000000000  0.0000000000000000
  0.0000000000000000  0.7335252211649461  0.0000000000000000
  0.0000000000000000  0.2664747788350539  0.0000000000000000
  0.0000000000000000  0.5000000000000000  0.2335252671649499
  0.0000000000000000  0.5000000000000000  0.7664747788350539
  0.2339230677278294  0.5000000000000000  0.0000000000000000
  0.7660769782721744  0.5000000000000000  0.0000000000000000
  0.0000000000000000  0.2335252671649499  0.5000000000000000
  0.0000000000000000  0.7664747788350539  0.5000000000000000
  0.0000000000000000  0.0000000000000000  0.7335252211649461
  0.0000000000000000  0.0000000000000000  0.2664747788350539
  0.2339230677278294  0.0000000000000000  0.5000000000000000
  0.7660769782721744  0.0000000000000000  0.5000000000000000
 
  0.00000000E+00  0.00000000E+00  0.00000000E+00
  0.00000000E+00  0.00000000E+00  0.00000000E+00
  0.00000000E+00  0.00000000E+00  0.00000000E+00
  0.00000000E+00  0.00000000E+00  0.00000000E+00
  0.00000000E+00  0.00000000E+00  0.00000000E+00
  0.00000000E+00  0.00000000E+00  0.00000000E+00
  0.00000000E+00  0.00000000E+00  0.00000000E+00
  0.00000000E+00  0.00000000E+00  0.00000000E+00
  0.00000000E+00  0.00000000E+00  0.00000000E+00
  0.00000000E+00  0.00000000E+00  0.00000000E+00
  0.00000000E+00  0.00000000E+00  0.00000000E+00
  0.00000000E+00  0.00000000E+00  0.00000000E+00
  0.00000000E+00  0.00000000E+00  0.00000000E+00
  0.00000000E+00  0.00000000E+00  0.00000000E+00
  0.00000000E+00  0.00000000E+00  0.00000000E+00
  0.00000000E+00  0.00000000E+00  0.00000000E+00
  0.00000000E+00  0.00000000E+00  0.00000000E+00
  0.00000000E+00  0.00000000E+00  0.00000000E+00
  0.00000000E+00  0.00000000E+00  0.00000000E+00
  0.00000000E+00  0.00000000E+00  0.00000000E+00
  0.00000000E+00  0.00000000E+00  0.00000000E+00
  0.00000000E+00  0.00000000E+00  0.00000000E+00
  0.00000000E+00  0.00000000E+00  0.00000000E+00
  0.00000000E+00  0.00000000E+00  0.00000000E+00
  0.00000000E+00  0.00000000E+00  0.00000000E+00
  0.00000000E+00  0.00000000E+00  0.00000000E+00
  0.00000000E+00  0.00000000E+00  0.00000000E+00
  0.00000000E+00  0.00000000E+00  0.00000000E+00
  0.00000000E+00  0.00000000E+00  0.00000000E+00
  0.00000000E+00  0.00000000E+00  0.00000000E+00
  0.00000000E+00  0.00000000E+00  0.00000000E+00
  0.00000000E+00  0.00000000E+00  0.00000000E+00
  0.00000000E+00  0.00000000E+00  0.00000000E+00
  0.00000000E+00  0.00000000E+00  0.00000000E+00
  0.00000000E+00  0.00000000E+00  0.00000000E+00
  0.00000000E+00  0.00000000E+00  0.00000000E+00
  0.00000000E+00  0.00000000E+00  0.00000000E+00
  0.00000000E+00  0.00000000E+00  0.00000000E+00
  0.00000000E+00  0.00000000E+00  0.00000000E+00
  0.00000000E+00  0.00000000E+00  0.00000000E+00
