cs2agfecl6                              
   1.00000000000000     
    10.4190054737326374    0.0000000000000000    0.0000000000000000
     0.0000000000000000   10.4190054737326374    0.0000000000000000
     0.0000000000000000    0.0000000000000000   10.4190054737326374
   Cs   Ag   Fe   Cl
     8     4     4    24
Direct
  0.2500000000000000  0.7500000229999984  0.7500000229999984
  0.7500000229999984  0.2500000000000000  0.2500000000000000
  0.7500000229999984  0.2500000000000000  0.7500000229999984
  0.2500000000000000  0.7500000229999984  0.2500000000000000
  0.7500000229999984  0.7500000229999984  0.2500000000000000
  0.2500000000000000  0.2500000000000000  0.7500000229999984
  0.2500000000000000  0.2500000000000000  0.2500000000000000
  0.7500000229999984  0.7500000229999984  0.7500000229999984
  0.5000000000000000  0.0000000000000000  0.5000000000000000
  0.5000000000000000  0.5000000000000000  0.0000000000000000
  0.0000000000000000  0.5000000000000000  0.5000000000000000
  0.0000000000000000  0.0000000000000000  0.0000000000000000
  0.5000000000000000  0.5000000000000000  0.5000000000000000
  0.5000000000000000  0.0000000000000000  0.0000000000000000
  0.0000000000000000  0.5000000000000000  0.0000000000000000
  0.0000000000000000  0.0000000000000000  0.5000000000000000
  0.5000000000000000  0.7335091953973389  0.5000000000000000
  0.5000000000000000  0.2664908046026611  0.5000000000000000
  0.5000000000000000  0.5000000000000000  0.7335091953973389
  0.5000000000000000  0.5000000000000000  0.2664908046026611
  0.7335091953973389  0.5000000000000000  0.5000000000000000
  0.2664908046026611  0.5000000000000000  0.5000000000000000
  0.5000000000000000  0.2335092413973427  0.0000000000000000
  0.5000000000000000  0.7664908046026611  0.0000000000000000
  0.5000000000000000  0.0000000000000000  0.2335092413973427
  0.5000000000000000  0.0000000000000000  0.7664908046026611
  0.7335091953973389  0.0000000000000000  0.0000000000000000
  0.2664908046026611  0.0000000000000000  0.0000000000000000
  0.0000000000000000  0.7335091953973389  0.0000000000000000
  0.0000000000000000  0.2664908046026611  0.0000000000000000
  0.0000000000000000  0.5000000000000000  0.2335092413973427
  0.0000000000000000  0.5000000000000000  0.7664908046026611
  0.2335092413973427  0.5000000000000000  0.0000000000000000
  0.7664908046026611  0.5000000000000000  0.0000000000000000
  0.0000000000000000  0.2335092413973427  0.5000000000000000
  0.0000000000000000  0.7664908046026611  0.5000000000000000
  0.0000000000000000  0.0000000000000000  0.7335091953973389
  0.0000000000000000  0.0000000000000000  0.2664908046026611
  0.2335092413973427  0.0000000000000000  0.5000000000000000
  0.7664908046026611  0.0000000000000000  0.5000000000000000
 
  0.00000000E+00  0.00000000E+00  0.00000000E+00
  0.00000000E+00  0.00000000E+00  0.00000000E+00
  0.00000000E+00  0.00000000E+00  0.00000000E+00
  0.00000000E+00  0.00000000E+00  0.00000000E+00
  0.00000000E+00  0.00000000E+00  0.00000000E+00
  0.00000000E+00  0.00000000E+00  0.00000000E+00
  0.00000000E+00  0.00000000E+00  0.00000000E+00
  0.00000000E+00  0.00000000E+00  0.00000000E+00
  0.00000000E+00  0.00000000E+00  0.00000000E+00
  0.00000000E+00  0.00000000E+00  0.00000000E+00
  0.00000000E+00  0.00000000E+00  0.00000000E+00
  0.00000000E+00  0.00000000E+00  0.00000000E+00
  0.00000000E+00  0.00000000E+00  0.00000000E+00
  0.00000000E+00  0.00000000E+00  0.00000000E+00
  0.00000000E+00  0.00000000E+00  0.00000000E+00
  0.00000000E+00  0.00000000E+00  0.00000000E+00
  0.00000000E+00  0.00000000E+00  0.00000000E+00
  0.00000000E+00  0.00000000E+00  0.00000000E+00
  0.00000000E+00  0.00000000E+00  0.00000000E+00
  0.00000000E+00  0.00000000E+00  0.00000000E+00
  0.00000000E+00  0.00000000E+00  0.00000000E+00
  0.00000000E+00  0.00000000E+00  0.00000000E+00
  0.00000000E+00  0.00000000E+00  0.00000000E+00
  0.00000000E+00  0.00000000E+00  0.00000000E+00
  0.00000000E+00  0.00000000E+00  0.00000000E+00
  0.00000000E+00  0.00000000E+00  0.00000000E+00
  0.00000000E+00  0.00000000E+00  0.00000000E+00
  0.00000000E+00  0.00000000E+00  0.00000000E+00
  0.00000000E+00  0.00000000E+00  0.00000000E+00
  0.00000000E+00  0.00000000E+00  0.00000000E+00
  0.00000000E+00  0.00000000E+00  0.00000000E+00
  0.00000000E+00  0.00000000E+00  0.00000000E+00
  0.00000000E+00  0.00000000E+00  0.00000000E+00
  0.00000000E+00  0.00000000E+00  0.00000000E+00
  0.00000000E+00  0.00000000E+00  0.00000000E+00
  0.00000000E+00  0.00000000E+00  0.00000000E+00
  0.00000000E+00  0.00000000E+00  0.00000000E+00
  0.00000000E+00  0.00000000E+00  0.00000000E+00
  0.00000000E+00  0.00000000E+00  0.00000000E+00
  0.00000000E+00  0.00000000E+00  0.00000000E+00
