cs2agfecl6                              
   1.00000000000000     
    10.3942721928780415    0.0000000000000000    0.0000000000000000
     0.0000000000000000   10.4194141029707783    0.0000000000000000
     0.0000000000000000    0.0000000000000000   10.4194141029707783
   Cs   Ag   Fe   Cl
     8     4     4    24
Direct
  0.2500000000000000  0.7500000229999984  0.7500000229999984
  0.7500000229999984  0.2500000000000000  0.2500000000000000
  0.7500000229999984  0.2500000000000000  0.7500000229999984
  0.2500000000000000  0.7500000229999984  0.2500000000000000
  0.7500000229999984  0.7500000229999984  0.2500000000000000
  0.2500000000000000  0.2500000000000000  0.7500000229999984
  0.2500000000000000  0.2500000000000000  0.2500000000000000
  0.7500000229999984  0.7500000229999984  0.7500000229999984
  0.5000000000000000  0.0000000000000000  0.5000000000000000
  0.5000000000000000  0.5000000000000000  0.0000000000000000
  0.0000000000000000  0.5000000000000000  0.5000000000000000
  0.0000000000000000  0.0000000000000000  0.0000000000000000
  0.5000000000000000  0.5000000000000000  0.5000000000000000
  0.5000000000000000  0.0000000000000000  0.0000000000000000
  0.0000000000000000  0.5000000000000000  0.0000000000000000
  0.0000000000000000  0.0000000000000000  0.5000000000000000
  0.5000000000000000  0.7335276004382152  0.5000000000000000
  0.5000000000000000  0.2664723995617848  0.5000000000000000
  0.5000000000000000  0.5000000000000000  0.7335276004382152
  0.5000000000000000  0.5000000000000000  0.2664723995617848
  0.7339856572367651  0.5000000000000000  0.5000000000000000
  0.2660143427632349  0.5000000000000000  0.5000000000000000
  0.5000000000000000  0.2335276464382190  0.0000000000000000
  0.5000000000000000  0.7664723995617848  0.0000000000000000
  0.5000000000000000  0.0000000000000000  0.2335276464382190
  0.5000000000000000  0.0000000000000000  0.7664723995617848
  0.7339856572367651  0.0000000000000000  0.0000000000000000
  0.2660143427632349  0.0000000000000000  0.0000000000000000
  0.0000000000000000  0.7335276004382152  0.0000000000000000
  0.0000000000000000  0.2664723995617848  0.0000000000000000
  0.0000000000000000  0.5000000000000000  0.2335276464382190
  0.0000000000000000  0.5000000000000000  0.7664723995617848
  0.2339857032367689  0.5000000000000000  0.0000000000000000
  0.7660143427632349  0.5000000000000000  0.0000000000000000
  0.0000000000000000  0.2335276464382190  0.5000000000000000
  0.0000000000000000  0.7664723995617848  0.5000000000000000
  0.0000000000000000  0.0000000000000000  0.7335276004382152
  0.0000000000000000  0.0000000000000000  0.2664723995617848
  0.2339857032367689  0.0000000000000000  0.5000000000000000
  0.7660143427632349  0.0000000000000000  0.5000000000000000
 
  0.00000000E+00  0.00000000E+00  0.00000000E+00
  0.00000000E+00  0.00000000E+00  0.00000000E+00
  0.00000000E+00  0.00000000E+00  0.00000000E+00
  0.00000000E+00  0.00000000E+00  0.00000000E+00
  0.00000000E+00  0.00000000E+00  0.00000000E+00
  0.00000000E+00  0.00000000E+00  0.00000000E+00
  0.00000000E+00  0.00000000E+00  0.00000000E+00
  0.00000000E+00  0.00000000E+00  0.00000000E+00
  0.00000000E+00  0.00000000E+00  0.00000000E+00
  0.00000000E+00  0.00000000E+00  0.00000000E+00
  0.00000000E+00  0.00000000E+00  0.00000000E+00
  0.00000000E+00  0.00000000E+00  0.00000000E+00
  0.00000000E+00  0.00000000E+00  0.00000000E+00
  0.00000000E+00  0.00000000E+00  0.00000000E+00
  0.00000000E+00  0.00000000E+00  0.00000000E+00
  0.00000000E+00  0.00000000E+00  0.00000000E+00
  0.00000000E+00  0.00000000E+00  0.00000000E+00
  0.00000000E+00  0.00000000E+00  0.00000000E+00
  0.00000000E+00  0.00000000E+00  0.00000000E+00
  0.00000000E+00  0.00000000E+00  0.00000000E+00
  0.00000000E+00  0.00000000E+00  0.00000000E+00
  0.00000000E+00  0.00000000E+00  0.00000000E+00
  0.00000000E+00  0.00000000E+00  0.00000000E+00
  0.00000000E+00  0.00000000E+00  0.00000000E+00
  0.00000000E+00  0.00000000E+00  0.00000000E+00
  0.00000000E+00  0.00000000E+00  0.00000000E+00
  0.00000000E+00  0.00000000E+00  0.00000000E+00
  0.00000000E+00  0.00000000E+00  0.00000000E+00
  0.00000000E+00  0.00000000E+00  0.00000000E+00
  0.00000000E+00  0.00000000E+00  0.00000000E+00
  0.00000000E+00  0.00000000E+00  0.00000000E+00
  0.00000000E+00  0.00000000E+00  0.00000000E+00
  0.00000000E+00  0.00000000E+00  0.00000000E+00
  0.00000000E+00  0.00000000E+00  0.00000000E+00
  0.00000000E+00  0.00000000E+00  0.00000000E+00
  0.00000000E+00  0.00000000E+00  0.00000000E+00
  0.00000000E+00  0.00000000E+00  0.00000000E+00
  0.00000000E+00  0.00000000E+00  0.00000000E+00
  0.00000000E+00  0.00000000E+00  0.00000000E+00
  0.00000000E+00  0.00000000E+00  0.00000000E+00
